benchmarks/VRPTW/TSPTW/solution/n20w120.005.txt.solution
1 20 14 12 8 17 19 4 9 18 3 6 11 15 5 10 7 16 13 2 21 
240
